
Gurobi 11.0.3 (linux64) logging started Mon Aug 25 12:54:27 2025

Set parameter LogFile to value "/home/yihong/Coding/OR_SUC/SUC_epstheta_results_bigM100000_thread4/case24_ieee_rts_theta0.1_epsilon0.2_gurobi_seed80000_num_gen100_N_WDR50_load_scaling_factor1_proposed_eps_T3quadra_cost_bc1.03.txt"
Set parameter TimeLimit to value 3600
Gurobi Optimizer version 11.0.3 build v11.0.3rc0 (linux64 - "Ubuntu 20.04.6 LTS")

CPU model: AMD EPYC 7532 32-Core Processor, instruction set [SSE2|AVX|AVX2]
Thread count: 64 physical cores, 128 logical processors, using up to 4 threads

Academic license 2399124 - for non-commercial use only - registered to yi___@ed.ac.uk
Optimize a model with 7879 rows, 3771 columns and 289294 nonzeros
Model fingerprint: 0x4f0db7e7
Model has 300 quadratic constraints
Variable types: 3471 continuous, 300 integer (300 binary)
Coefficient statistics:
  Matrix range     [3e-04, 2e+03]
  QMatrix range    [2e-03, 8e-03]
  QLMatrix range   [6e-02, 6e+01]
  Objective range  [1e+00, 1e+00]
  Bounds range     [1e+00, 1e+00]
  RHS range        [1e+00, 9e+03]
Presolve removed 6661 rows and 1736 columns
Presolve time: 0.06s
Presolved: 1218 rows, 2035 columns, 8552 nonzeros
Presolved model has 300 quadratic constraint(s)
Variable types: 1735 continuous, 300 integer (300 binary)

Root relaxation: objective 2.941580e+03, 860 iterations, 0.01 seconds (0.01 work units)

    Nodes    |    Current Node    |     Objective Bounds      |     Work
 Expl Unexpl |  Obj  Depth IntInf | Incumbent    BestBd   Gap | It/Node Time

     0     0 2941.58022    0    3          - 2941.58022      -     -    0s
     0     0 46636.3027    0   87          - 46636.3027      -     -    0s
     0     0 86479.4535    0   33          - 86479.4535      -     -    0s
     0     0 86481.8200    0   33          - 86481.8200      -     -    0s
     0     0 86506.6451    0   15          - 86506.6451      -     -    0s
     0     0 86507.1389    0   15          - 86507.1389      -     -    0s
     0     0 86507.1389    0   15          - 86507.1389      -     -    0s
     0     0 86507.1389    0   15          - 86507.1389      -     -    0s
     0     2 86507.1389    0   15          - 86507.1389      -     -    0s
H   37    48                    86512.739241 86507.6420  0.01%   7.1    0s
*   37    48              14    86512.739241 86507.6420  0.01%   7.1    0s

Cutting planes:
  Gomory: 25
  Implied bound: 61
  MIR: 23
  Flow cover: 99

Explored 57 nodes (2587 simplex iterations) in 0.70 seconds (0.52 work units)
Thread count was 4 (of 128 available processors)

Solution count 1: 86512.7 

Optimal solution found (tolerance 1.00e-03)
Warning: max constraint violation (4.6218e-09) exceeds tolerance
Best objective 8.651273924130e+04, best bound 8.650764198256e+04, gap 0.0059%

Gurobi 11.0.3 (linux64) logging started Mon Aug 25 12:54:28 2025

Set parameter LogFile to value "/home/yihong/Coding/OR_SUC/SUC_epstheta_results_bigM100000_thread4/case24_ieee_rts_theta0.1_epsilon0.2_gurobi_seed80000_num_gen100_N_WDR50_load_scaling_factor1_proposed_eps_T3quadra_cost_bc1.03.txt"
Set parameter TimeLimit to value 3600
Gurobi Optimizer version 11.0.3 build v11.0.3rc0 (linux64 - "Ubuntu 20.04.6 LTS")

CPU model: AMD EPYC 7532 32-Core Processor, instruction set [SSE2|AVX|AVX2]
Thread count: 64 physical cores, 128 logical processors, using up to 4 threads

Academic license 2399124 - for non-commercial use only - registered to yi___@ed.ac.uk
Optimize a model with 7879 rows, 3772 columns and 290173 nonzeros
Model fingerprint: 0xc2d9b2af
Model has 301 quadratic constraints
Variable types: 3472 continuous, 300 integer (300 binary)
Coefficient statistics:
  Matrix range     [3e-04, 2e+03]
  QMatrix range    [2e-03, 5e+01]
  QLMatrix range   [6e-02, 6e+01]
  Objective range  [1e+00, 1e+00]
  Bounds range     [2e-01, 1e+00]
  RHS range        [1e+00, 9e+04]
  QRHS range       [5e+00, 5e+00]
Presolve removed 6258 rows and 1538 columns
Presolve time: 0.06s
Presolved: 1923 rows, 2534 columns, 12069 nonzeros
Presolved model has 300 quadratic constraint(s)
Presolved model has 1 bilinear constraint(s)

Solving non-convex MIQCP

Variable types: 2230 continuous, 304 integer (304 binary)

Root relaxation: objective 1.430358e-03, 2198 iterations, 0.05 seconds (0.07 work units)

    Nodes    |    Current Node    |     Objective Bounds      |     Work
 Expl Unexpl |  Obj  Depth IntInf | Incumbent    BestBd   Gap | It/Node Time

     0     0    0.00143    0    7          -    0.00143      -     -    0s
     0     0    0.00143    0    7          -    0.00143      -     -    0s
     0     0    0.00143    0    7          -    0.00143      -     -    0s
     0     0    0.00197    0    7          -    0.00197      -     -    0s
H    0     0                       0.0133605    0.00197  85.2%     -    0s
     0     0    0.01328    0    7    0.01336    0.01328  0.58%     -    0s
     0     0    0.01329    0   10    0.01336    0.01329  0.57%     -    0s
H    0     0                       0.0133224    0.01329  0.26%     -    0s
H    0     0                       0.0133223    0.01329  0.26%     -    0s
     0     0    0.01329    0   10    0.01332    0.01329  0.26%     -    0s
     0     0    0.01329    0    7    0.01332    0.01329  0.26%     -    0s
     0     0    0.01329    0   10    0.01332    0.01329  0.25%     -    0s
     0     0    0.01329    0   10    0.01332    0.01329  0.25%     -    0s
     0     0    0.01329    0   10    0.01332    0.01329  0.23%     -    0s
     0     0    0.01329    0    7    0.01332    0.01329  0.23%     -    0s
     0     0    0.01329    0    7    0.01332    0.01329  0.23%     -    0s
     0     0    0.01329    0    6    0.01332    0.01329  0.23%     -    0s
     0     0    0.01330    0    7    0.01332    0.01330  0.20%     -    0s
     0     0    0.01332    0    7    0.01332    0.01332  0.00%     -    0s

Cutting planes:
  Gomory: 3
  Implied bound: 11
  Flow cover: 2

Explored 1 nodes (3522 simplex iterations) in 0.91 seconds (0.73 work units)
Thread count was 4 (of 128 available processors)

Solution count 3: 0.0133223 0.0133224 0.0133605 

Optimal solution found (tolerance 1.00e-03)
Best objective 1.332232298366e-02, best bound 1.332232277544e-02, gap 0.0000%
